SPARKNaCl/why3-z3/sparknacl-utils.adb_412_20_initialization_1.smt2
;; produced by z3_gnatprove.drv ;;
(set-info :smt-lib-version 2.5)
(set-info :source |VC generated by SPARK 2014|)
(set-info :category industrial)
(set-info :status unknown)
;;; generated by SMT-LIB2 driver
;;; SMT-LIB2 driver: bit-vectors, common part
;;; SMT-LIB2: integer arithmetic
(declare-datatypes ()
  ((int__ref (int__refqtmk (int__content Int)))))

(declare-sort byte 0)

;; "to_rep"
(declare-fun to_rep (byte) (_ BitVec 8))

;; "of_rep"
(declare-fun of_rep ((_ BitVec 8)) byte)

;; "inversion_axiom"
(assert
  (forall ((x byte)) (! (= (of_rep (to_rep x)) x) :pattern ((to_rep x)) )))

;; "range_axiom"
(assert true)

;; "coerce_axiom"
(assert
  (forall ((x (_ BitVec 8)))
    (! (= (to_rep (of_rep x)) x) :pattern ((to_rep (of_rep x))) )))

(declare-sort map1 0)

;; "has_bounds"
(declare-fun has_bounds (map1
  Int
  Int) Bool)

;; "get"
(declare-fun get (map1
  Int) byte)

(declare-const n map1)

(declare-sort gf16_normal_limb 0)

(declare-datatypes ()
  ((gf16_normal_limb__init_wrapper
   (gf16_normal_limb__init_wrapperqtmk
   (rec__value gf16_normal_limb)(us_attr__init Bool)))))

(declare-sort map2 0)

(declare-datatypes ()
  ((map__ref (map__refqtmk (map__content map2)))))

;; "has_bounds"
(declare-fun has_bounds1 (map2
  Int
  Int) Bool)

;; "get"
(declare-fun get1 (map2
  Int) gf16_normal_limb__init_wrapper)

;; "set"
(declare-fun set (map2
  Int
  gf16_normal_limb__init_wrapper) map2)

;; "set_eq"
(assert
  (forall ((a map2) (i Int) (v gf16_normal_limb__init_wrapper))
    (! (= (get1 (set a i v) i) v) :pattern ((set a i v)) )))

;; "set_neq"
(assert
  (forall ((a map2) (i Int) (v gf16_normal_limb__init_wrapper))
    (! (forall ((j Int))
         (! (=> (not (= i j)) (= (get1 (set a i v) j) (get1 a j))) :pattern (
         (get1
           a
           j)) :pattern ((get1 (set a i v) j)) )) :pattern ((set a i v)) )))

;; "set_has_bounds"
(assert
  (forall ((a map2) (i Int) (f Int) (l Int) (v gf16_normal_limb__init_wrapper))
    (! (=>
         (and (<= f i) (<= i l))
         (=> (has_bounds1 a f l) (has_bounds1 (set a i v) f l))) :pattern (
    (has_bounds1
      (set a i v)
      f
      l)) )))

;; "to_rep"
(declare-fun to_rep1 (gf16_normal_limb) (_ BitVec 16))

;; "of_rep"
(declare-fun of_rep1 ((_ BitVec 16)) gf16_normal_limb)

;; "inversion_axiom"
(assert
  (forall ((x gf16_normal_limb))
    (! (= (of_rep1 (to_rep1 x)) x) :pattern ((to_rep1 x)) )))

;; "range_axiom"
(assert true)

;; "coerce_axiom"
(assert
  (forall ((x (_ BitVec 16)))
    (! (= (to_rep1 (of_rep1 x)) x) :pattern ((to_rep1 (of_rep1 x))) )))

(declare-const o map2)

;; "o'unused"
(define-fun oqtunused () map__ref
  (map__refqtmk o))

;; "Assume"
(assert (has_bounds n 0 31))

;; "Assume"
(assert (has_bounds1 o 0 15))

(declare-const o1 map2)

;; "o'unused"
(define-fun oqtunused1 () map__ref
  (map__refqtmk o1))

(declare-const i Int)

(declare-const iqtunused int__ref)

;; "H"
(assert (= iqtunused (int__refqtmk i)))

;; "H"
(assert (= i 0))

(declare-const int__contentqtresultqtunused Int)

;; "H"
(assert (= int__contentqtresultqtunused i))

(declare-const o2 Bool)

;; "H"
(assert (= o2 (ite (<= i 15) true false)))

(declare-const infix_lseqqtresultqtunused Bool)

;; "H"
(assert (= infix_lseqqtresultqtunused o2))

(declare-const int__contentqtresultqtunused1 Int)

;; "H"
(assert (= int__contentqtresultqtunused1 i))

(declare-const o3 Bool)

;; "H"
(assert (= o3 (ite (<= 0 i) true false)))

(declare-const infix_lseqqtresultqtunused1 Bool)

;; "H"
(assert (= infix_lseqqtresultqtunused1 o3))

(declare-const o4 Bool)

;; "H"
(assert (= o4 (and o3 o2)))

(declare-const andbqtresultqtunused Bool)

;; "H"
(assert (= andbqtresultqtunused o4))

(declare-const temp___loop_entry_847qtunused map2)

(declare-const map__contentqtresultqtunused map2)

(declare-const int__contentqtresultqtunused2 Int)

(declare-const o5 Int)

(declare-const infix_asqtresultqtunused Int)

(declare-const o6 Int)

(declare-const infix_plqtresultqtunused Int)

(declare-const o7 byte)

(declare-const getqtresultqtunused byte)

(declare-const o8 (_ BitVec 8))

(declare-const to_repqtresultqtunused (_ BitVec 8))

(declare-const o9 (_ BitVec 16))

(declare-const toBigqtresultqtunused (_ BitVec 16))

(declare-const o10 (_ BitVec 16))

(declare-const mulqtresultqtunused (_ BitVec 16))

(declare-const int__contentqtresultqtunused3 Int)

(declare-const o11 Int)

(declare-const infix_asqtresultqtunused1 Int)

(declare-const o12 byte)

(declare-const getqtresultqtunused1 byte)

(declare-const o13 (_ BitVec 8))

(declare-const to_repqtresultqtunused1 (_ BitVec 8))

(declare-const o14 (_ BitVec 16))

(declare-const toBigqtresultqtunused1 (_ BitVec 16))

(declare-const o15 (_ BitVec 16))

(declare-const addqtresultqtunused (_ BitVec 16))

(declare-const o16 gf16_normal_limb)

(declare-const of_repqtresultqtunused gf16_normal_limb)

(declare-const o17 gf16_normal_limb__init_wrapper)

(declare-const to_wrapperqtresultqtunused gf16_normal_limb__init_wrapper)

(declare-const int__contentqtresultqtunused4 Int)

(declare-const map__contentqtresultqtunused1 map2)

(declare-const o18 map2)

(declare-const setqtresultqtunused map2)

(declare-const o19 map2)

(declare-const oqtunused2 map__ref)

(declare-const usfqtunused Bool)

(declare-const anyqtresultqtunused Bool)

(declare-const i1 Int)

(declare-const iqtunused1 int__ref)

(declare-const int__contentqtresultqtunused5 Int)

(declare-const infix_eqqtresultqtunused Bool)

(declare-const usf Int)

(declare-const anyqtresultqtunused1 Int)

(declare-const jqtunused Int)

(declare-const int__contentqtresultqtunused6 Int)

(declare-const o20 Bool)

(declare-const infix_lseqqtresultqtunused2 Bool)

(declare-const o21 Bool)

(declare-const infix_lseqqtresultqtunused3 Bool)

(declare-const andbqtresultqtunused1 Bool)

;; "H"
(assert
  (ite (= o4 true)
    (and
      (= temp___loop_entry_847qtunused o)
      (and
        (= map__contentqtresultqtunused o)
        (and
          (= int__contentqtresultqtunused2 i)
          (and
            (= o5 (* 2 i))
            (and
              (= infix_asqtresultqtunused o5)
              (and
                (= o6 (+ o5 1))
                (and
                  (= infix_plqtresultqtunused o6)
                  (and
                    (= o7 (get n o6))
                    (and
                      (= getqtresultqtunused o7)
                      (and
                        (= (to_rep o7) o8)
                        (and
                          (= to_repqtresultqtunused o8)
                          (and
                            (= o9 ((_ zero_extend 8) o8))
                            (and
                              (= toBigqtresultqtunused o9)
                              (and
                                (= o10 (bvmul o9 #x0100))
                                (and
                                  (= mulqtresultqtunused o10)
                                  (and
                                    (= int__contentqtresultqtunused3 
                                    i)
                                    (and
                                      (= o11 (* 2 i))
                                      (and
                                        (= infix_asqtresultqtunused1 
                                        o11)
                                        (and
                                          (= o12 (get n o11))
                                          (and
                                            (= getqtresultqtunused1 o12)
                                            (and
                                              (= (to_rep o12) o13)
                                              (and
                                                (= to_repqtresultqtunused1 
                                                o13)
                                                (and
                                                  (= o14 ((_ zero_extend 8) 
                                                  o13))
                                                  (and
                                                    (= toBigqtresultqtunused1 
                                                    o14)
                                                    (and
                                                      (= o15 (bvadd o14 
                                                      o10))
                                                      (and
                                                        (= addqtresultqtunused 
                                                        o15)
                                                        (and
                                                          (= (to_rep1 o16) 
                                                          o15)
                                                          (and
                                                            (= of_repqtresultqtunused 
                                                            o16)
                                                            (and
                                                              (= o17 
                                                              (gf16_normal_limb__init_wrapperqtmk
                                                                o16
                                                                true))
                                                              (and
                                                                (= to_wrapperqtresultqtunused 
                                                                o17)
                                                                (and
                                                                  (= 
                                                                  int__contentqtresultqtunused4 
                                                                  i)
                                                                  (and
                                                                    (= 
                                                                    map__contentqtresultqtunused1 
                                                                    o)
                                                                    (and
                                                                    (= 
                                                                    o18 
                                                                    (set
                                                                    o
                                                                    i
                                                                    o17))
                                                                    (and
                                                                    (= 
                                                                    setqtresultqtunused 
                                                                    o18)
                                                                    (and
                                                                    (= 
                                                                    oqtunused2 
                                                                    (map__refqtmk
                                                                    o19))
                                                                    (and
                                                                    (= 
                                                                    o19 
                                                                    o18)
                                                                    (and
                                                                    (and
                                                                    (= 
                                                                    anyqtresultqtunused1 
                                                                    usf)
                                                                    (and
                                                                    (= 
                                                                    jqtunused 
                                                                    usf)
                                                                    (and
                                                                    (= 
                                                                    int__contentqtresultqtunused6 
                                                                    i)
                                                                    (and
                                                                    (= 
                                                                    o20 
                                                                    (ite (<= 
                                                                    usf 
                                                                    i)
                                                                    true
                                                                    false))
                                                                    (and
                                                                    (= 
                                                                    infix_lseqqtresultqtunused2 
                                                                    o20)
                                                                    (and
                                                                    (= 
                                                                    o21 
                                                                    (ite (<= 0 
                                                                    usf)
                                                                    true
                                                                    false))
                                                                    (and
                                                                    (= 
                                                                    infix_lseqqtresultqtunused3 
                                                                    o21)
                                                                    (= 
                                                                    andbqtresultqtunused1 (and 
                                                                    o21 
                                                                    o20)))))))))
                                                                    (and
                                                                    (= 
                                                                    usfqtunused 
                                                                    (ite 
                                                                    (forall 
                                                                    ((j Int))
                                                                    (=>
                                                                    (and
                                                                    (<= 0 j)
                                                                    (<= j 
                                                                    i))
                                                                    (= 
                                                                    (us_attr__init
                                                                    (get1
                                                                    o19
                                                                    j)) true)))
                                                                    true
                                                                    false))
                                                                    (and
                                                                    (= 
                                                                    anyqtresultqtunused 
                                                                    (ite 
                                                                    (forall 
                                                                    ((j Int))
                                                                    (=>
                                                                    (and
                                                                    (<= 0 j)
                                                                    (<= j 
                                                                    i))
                                                                    (= 
                                                                    (us_attr__init
                                                                    (get1
                                                                    o19
                                                                    j)) true)))
                                                                    true
                                                                    false))
                                                                    (and
                                                                    (= 
                                                                    iqtunused1 
                                                                    (int__refqtmk
                                                                    i1))
                                                                    (and
                                                                    (forall 
                                                                    ((j Int))
                                                                    (=>
                                                                    (and
                                                                    (<= 0 j)
                                                                    (<= j 
                                                                    i1))
                                                                    (= 
                                                                    (us_attr__init
                                                                    (get1
                                                                    o1
                                                                    j)) true)))
                                                                    (and
                                                                    (= (and 
                                                                    (ite 
                                                                    (and
                                                                    (has_bounds1
                                                                    o1
                                                                    0
                                                                    15)
                                                                    (forall 
                                                                    ((temp___848 Int))
                                                                    (=>
                                                                    (and
                                                                    (<= 0 temp___848)
                                                                    (<= temp___848 15))
                                                                    (=>
                                                                    (or
                                                                    (< 15 temp___848)
                                                                    (or
                                                                    (< temp___848 0)
                                                                    (< 
                                                                    i1 temp___848)))
                                                                    (= 
                                                                    (get1
                                                                    o1
                                                                    temp___848) 
                                                                    (get1
                                                                    o
                                                                    temp___848))))))
                                                                    true
                                                                    false) 
                                                                    (ite 
                                                                    (and
                                                                    (<= 0 
                                                                    i1)
                                                                    (<= 
                                                                    i1 15))
                                                                    true
                                                                    false)) true)
                                                                    (and
                                                                    (= 
                                                                    int__contentqtresultqtunused5 
                                                                    i1)
                                                                    (and
                                                                    (= 
                                                                    infix_eqqtresultqtunused 
                                                                    (ite (= 
                                                                    i1 15)
                                                                    true
                                                                    false))
                                                                    (= 
                                                                    i1 15)))))))))))))))))))))))))))))))))))))))))))))
    (= o1 o)))

;; "map__content'result'unused"
(define-fun map__contentqtresultqtunused2 () map2
  o1)

;; "temp___857"
(define-fun temp___857 () gf16_normal_limb__init_wrapper
  (get1 o1 15))

;; "get'result'unused"
(define-fun getqtresultqtunused2 () gf16_normal_limb__init_wrapper
  temp___857)

;; Goal "def'vc"
;; File "sparknacl-utils.ads", line 62, characters 0-0
(assert
  (not (= (us_attr__init temp___857) true)))

(check-sat)
